proyfinal/src/viki/013/experimentInOfficeAgust.take6.output/c7926831-9972-47b1-b36c-f426a8cc13b1.als.dat
{'cnf.clauses': '118081',
 'cnf.totvars': '69608',
 'conflict literals': '1524',
 'conflicts': '158',
 'decisions': '7281',
 'memused.mb': '14.96',
 'outcome': 'UNSAT',
 'propagations': '212977',
 'restarts': '2',
 'solver.msecs': 37,
 'task.msecs': 87}
