proyfinal/src/viki/013/experimentInOfficeAgust.take6.output/c7926831-9972-47b1-b36c-f426a8cc13b1.als.out
Reading from standard input... Use '--help' for help.
============================[ Problem Statistics ]=============================
|                                                                             |
|  Number of variables:         69608                                         |
|  Number of clauses:          118081                                         |
|  Parse time:                   0.02 s                                       |
|                                                                             |
============================[ Search Statistics ]==============================
| Conflicts |          ORIGINAL         |          LEARNT          | Progress |
|           |    Vars  Clauses Literals |    Limit  Clauses Lit/Cl |          |
===============================================================================
|       100 |   55265    78507   194705 |    28785       94      7 | 20.605 % |
===============================================================================
restarts              : 2
conflicts             : 158            (4175 /sec)
decisions             : 7281           (0.00 % random) (192375 /sec)
propagations          : 212977         (5627167 /sec)
conflict literals     : 1524           (17.04 % deleted)
Memory used           : 14.96 MB
CPU time              : 0.037848 s

UNSATISFIABLE
